Route #1: 46 5 10 39 33 45 15 44 37 12
Route #2: 32 11 16 29 21 50 34 30 9 49 38
Route #3: 2 20 35 36 3 28 31 8 22 1
Route #4: 47 4 17 42 40 19 41 13 18
Route #5: 27 48 26 7 23 43 24 25 14 6
cost 535
